words_train/words_964_SAT.qaiger
aag 53 24 0 1 29
30
22
4
8
38
26
28
2
6
24
32
34
42
46
36
44
18
48
16
20
12
10
14
40
106
50 46 30
52 51 10
54 44 28
56 55 8
58 42 26
60 59 6
62 58 7
64 40 24
66 64 5
68 65 4
70 38 22
72 71 2
74 73 69
76 75 67
78 76 63
80 79 61
82 80 57
84 54 9
86 50 11
88 87 85
90 88 83
92 91 53
94 48 32
96 95 12
98 94 13
100 99 97
102 101 92
104 100 93
106 105 103
i0 2 y[6]
i1 2 y[2]
i2 1 x[1]
i3 1 x[3]
i4 2 z[2]
i5 2 y[4]
i6 2 y[5]
i7 1 x[0]
i8 1 x[2]
i9 2 y[3]
i10 2 y[7]
i11 2 z[0]
i12 2 z[4]
i13 2 z[6]
i14 2 z[1]
i15 2 z[5]
i16 2 y[0]
i17 2 z[7]
i18 1 x[7]
i19 2 y[1]
i20 1 x[5]
i21 1 x[4]
i22 1 x[6]
i23 2 z[3]
o0 bv[0]
c
simplified
  >
    subtract
      and
        2 y
        2 z
      unary minus
        1
    << 2
      1 x
