words_train/words_964_SAT.qaiger.qdimacs
p cnf 53 88
a 1 2 3 4 5 6 7 8 0
e 9 10 11 12 13 14 15 16 17 18 19 20 21 22 23 24 25 26 27 28 29 30 31 32 33 34 35 36 37 38 39 40 41 42 43 44 45 46 47 48 49 50 51 52 53 0
-23 -15 25 0
23 -25 0
15 -25 0
25 -5 26 0
-25 -26 0
5 -26 0
-22 -14 27 0
22 -27 0
14 -27 0
27 -4 28 0
-27 -28 0
4 -28 0
-21 -13 29 0
21 -29 0
13 -29 0
29 -3 30 0
-29 -30 0
3 -30 0
-29 3 31 0
29 -31 0
-3 -31 0
-20 -12 32 0
20 -32 0
12 -32 0
-32 2 33 0
32 -33 0
-2 -33 0
32 -2 34 0
-32 -34 0
2 -34 0
-19 -11 35 0
19 -35 0
11 -35 0
35 -1 36 0
-35 -36 0
1 -36 0
36 34 37 0
-36 -37 0
-34 -37 0
37 33 38 0
-37 -38 0
-33 -38 0
-38 31 39 0
38 -39 0
-31 -39 0
39 30 40 0
-39 -40 0
-30 -40 0
-40 28 41 0
40 -41 0
-28 -41 0
-27 4 42 0
27 -42 0
-4 -42 0
-25 5 43 0
25 -43 0
-5 -43 0
43 42 44 0
-43 -44 0
-42 -44 0
-44 41 45 0
44 -45 0
-41 -45 0
45 26 46 0
-45 -46 0
-26 -46 0
-24 -16 47 0
24 -47 0
16 -47 0
47 -6 48 0
-47 -48 0
6 -48 0
-47 6 49 0
47 -49 0
-6 -49 0
49 48 50 0
-49 -50 0
-48 -50 0
50 -46 51 0
-50 -51 0
46 -51 0
-50 46 52 0
50 -52 0
-46 -52 0
52 51 53 0
-52 -53 0
-51 -53 0
53 0
